/*********************************************
 * OPL 12.6.2.0 Data
 * Author: Y
 * Creation Date: Mar 16, 2018 at 4:03:53 PM
 *********************************************/
LOSS = [43	26	37	28	13	54	62	49	19	28	30];
LIFE = [8	8	2	8	4	8	8	8	6	8	8];
DUR = 2;